NAME : 10_3_3_3_(32).dat
COMMENT : Henke, Speranza, Wäscher, 2015
TYPE : MCVRP
DIMENSION : 11
EDGE_WEIGHT_TYPE : DISTANCE_MATRIX
CAPACITY : 1000
VEHICLES : 3
PRODUCT TYPES : 3
COMPARTMENTS : 3
NODE_COORD_SECTION
1 50 50
2 70.22 18.54
3 1.32 26.72
4 60.68 87.36
5 80.65 18.42
6 20.18 18.81
7 15.21 34.89
8 6.68 56.42
9 36.83 84.93
10 1.73 61.47
11 1.5 23.48
DEMAND_SECTION
1 0 0 0
2 57 75 35
3 85 41 30
4 28 26 28
5 61 44 20
6 66 52 31
7 142 64 14
8 79 28 50
9 124 5 29
10 96 88 50
11 94 76 47
DEPOT_SECTION
1
EOF